(set-logic QF_S)
(declare-fun var_0xINPUT_249376 () String)
(assert (and (= (len var_0xINPUT_249376) 0) (= (len var_0xINPUT_249376) 0) (not (= var_0xINPUT_249376 "ywUN4ZIDAC"))))
(check-sat var_0xINPUT_249376)